StudentsNr = 10;
InstructorsNr = 65;
DaysNr = 1;
SlotsPerDay = 10;
AvailabilitySlotsLenght = 1;
RoomNr = 1;
ProgrammNr = 1;
DegreeNr = 1;
RolesNr = 4;
CoursesNr = 0;
InstructorsProgramm = [{1}, {1}, {1}, {1}, {1}, {1}, {1}, {1}, {1}, {1}, {1}, {1}, {1}, {1}, {1}, {1}, {1}, {1}, {1}, {1}, {1}, {1}, {1}, {1}, {1}, {1}, {1}, {1}, {1}, {1}, {1}, {1}, {1}, {1}, {1}, {1}, {1}, {1}, {1}, {1}, {1}, {1}, {1}, {1}, {1}, {1}, {1}, {1}, {1}, {1}, {1}, {1}, {1}, {1}, {1}, {1}, {1}, {1}, {1}, {1}, {1}, {1}, {1}, {1}, {1}];
InstructorRolesPerProgramm = [|{1, 3, 5, 8, 12, 14, 17, 19, 24, 25, 26, 28, 29, 31, 33, 34, 35, 37, 40, 41, 42, 46, 50, 51, 52, 57, 58, 64, 65}, {4, 5, 7, 8, 10, 11, 12, 14, 16, 19, 22, 28, 33, 35, 36, 37, 39, 40, 41, 42, 44, 47, 48, 49, 50, 54, 56, 57, 59, 60, 62, 64}, {1, 4, 5, 7, 8, 9, 10, 13, 17, 20, 24, 26, 27, 30, 33, 35, 39, 41, 43, 46, 47, 48, 49, 53, 56, 57, 60, 63, 65}, {6, 7, 10, 12, 20, 21, 22, 25, 28, 29, 31, 34, 35, 36, 38, 41, 43, 44, 47, 50, 51, 52, 56, 58, 59, 61, 64, 65}|];
InstructorsAvailability = [|0, 1, 0, 1, 0, 1, 1, 1, 1, 1, |1, 1, 1, 1, 1, 1, 1, 1, 1, 0, |0, 1, 1, 1, 1, 1, 1, 1, 1, 1, |0, 1, 1, 1, 1, 1, 1, 1, 1, 1, |1, 1, 0, 1, 0, 0, 0, 0, 1, 1, |0, 0, 0, 1, 0, 0, 0, 1, 1, 0, |1, 1, 0, 1, 1, 1, 1, 0, 1, 1, |0, 1, 0, 1, 0, 1, 1, 1, 1, 1, |0, 1, 0, 1, 1, 1, 1, 1, 1, 1, |1, 1, 1, 1, 0, 1, 0, 1, 1, 1, |1, 1, 1, 1, 1, 1, 1, 1, 1, 1, |1, 1, 1, 1, 1, 1, 1, 1, 1, 0, |1, 1, 1, 1, 1, 1, 1, 1, 1, 1, |1, 0, 0, 1, 1, 1, 1, 1, 1, 1, |0, 0, 0, 1, 1, 0, 0, 0, 0, 1, |1, 0, 1, 1, 1, 1, 1, 0, 0, 0, |1, 1, 1, 0, 1, 0, 1, 1, 1, 0, |1, 1, 1, 1, 1, 1, 1, 1, 1, 1, |0, 1, 1, 1, 1, 1, 1, 1, 1, 1, |1, 0, 1, 1, 1, 1, 0, 1, 0, 1, |1, 1, 1, 1, 1, 1, 1, 1, 1, 1, |1, 1, 1, 1, 1, 1, 1, 1, 1, 1, |1, 1, 1, 1, 1, 0, 1, 1, 0, 0, |1, 1, 1, 1, 1, 1, 1, 1, 1, 1, |1, 1, 1, 1, 1, 1, 1, 0, 0, 0, |0, 0, 0, 0, 1, 1, 1, 1, 1, 1, |0, 0, 0, 1, 1, 1, 1, 1, 1, 1, |1, 1, 1, 1, 1, 1, 1, 0, 1, 1, |0, 1, 0, 0, 1, 1, 1, 1, 1, 1, |0, 0, 0, 1, 1, 1, 1, 1, 1, 1, |0, 1, 0, 1, 1, 1, 1, 1, 1, 0, |0, 1, 1, 1, 1, 1, 1, 0, 1, 1, |0, 0, 0, 0, 0, 1, 1, 1, 1, 1, |1, 1, 1, 1, 1, 1, 1, 1, 1, 1, |0, 1, 1, 1, 1, 1, 1, 0, 1, 1, |0, 1, 1, 1, 1, 1, 1, 1, 1, 1, |1, 1, 1, 0, 0, 1, 1, 0, 1, 0, |1, 1, 1, 1, 1, 1, 0, 1, 1, 1, |1, 1, 1, 0, 1, 1, 1, 1, 1, 1, |1, 1, 1, 1, 1, 1, 1, 1, 1, 1, |1, 1, 0, 1, 1, 1, 1, 1, 0, 1, |1, 1, 1, 1, 1, 0, 0, 0, 0, 0, |0, 1, 1, 1, 1, 1, 1, 1, 1, 0, |1, 1, 1, 0, 1, 1, 1, 1, 1, 1, |0, 1, 0, 1, 1, 1, 1, 0, 1, 1, |0, 0, 0, 1, 1, 1, 0, 0, 1, 1, |0, 1, 1, 1, 1, 1, 1, 1, 0, 0, |0, 1, 1, 1, 1, 1, 1, 1, 1, 1, |0, 1, 0, 1, 1, 0, 1, 1, 1, 1, |0, 1, 0, 0, 1, 0, 1, 1, 1, 1, |0, 0, 0, 1, 1, 1, 1, 1, 1, 0, |1, 1, 1, 1, 0, 1, 1, 1, 0, 1, |1, 0, 0, 1, 1, 1, 0, 1, 1, 1, |1, 1, 1, 1, 0, 1, 1, 0, 0, 1, |0, 1, 1, 1, 1, 0, 1, 1, 1, 1, |0, 0, 0, 0, 1, 0, 1, 1, 1, 1, |0, 1, 1, 1, 1, 1, 1, 1, 1, 1, |0, 1, 1, 1, 1, 1, 1, 1, 1, 1, |1, 1, 1, 1, 1, 1, 1, 0, 0, 0, |1, 0, 0, 1, 1, 1, 1, 0, 1, 1, |0, 0, 0, 1, 1, 0, 1, 1, 1, 1, |1, 1, 1, 0, 1, 0, 0, 1, 1, 0, |0, 1, 1, 1, 1, 1, 1, 1, 0, 1, |1, 0, 0, 0, 1, 1, 0, 0, 1, 1, |0, 0, 1, 1, 0, 0, 1, 1, 1, 1|];
StudentsProgramm = [1, 1, 1, 1, 1, 1, 1, 1, 1, 1];
StudentsDegree = [1, 1, 1, 1, 1, 1, 1, 1, 1, 1];
StudentsSupervisorId = [31, 46, 32, 54, 54, 39, 59, 6, 42, 57];
StudentsCourseIds = [{}, {}, {}, {}, {}, {}, {}, {}, {}, {}];
StudentsAvailability = [|1, 1, 1, 1, 1, 1, 1, 1, 0, 1, |1, 1, 1, 1, 1, 1, 1, 1, 1, 1, |1, 1, 1, 1, 1, 1, 1, 1, 1, 1, |0, 0, 0, 1, 1, 0, 1, 1, 1, 1, |0, 0, 1, 1, 1, 1, 1, 1, 1, 1, |0, 1, 1, 1, 1, 1, 1, 1, 1, 1, |1, 1, 1, 1, 1, 1, 1, 1, 1, 1, |0, 0, 0, 1, 0, 0, 1, 1, 1, 1, |1, 1, 1, 1, 1, 1, 1, 1, 1, 1, |1, 1, 1, 1, 1, 1, 1, 1, 1, 1|];
TheoryticalMinCard = [0, 0, 1, 0, 0, 0, 0, 0, 0, 0];
CoursesInstructorIds = [];
RolesDemands = [17, 25, 5, 5];
RolesContinuity = [];
ExamLen = [1, 1, 1, 1, 1, 1, 1, 1, 1, 1];
LunchTsMinLen = 0;
LunchStarts = [4..6];
SupervisorAvailable = 5;
OptimalLunchLenght = [3, 1];
OptimalStartTs = [2, 0];
OptimalFinishTs = [2, 10];
MinimizeRooms = 400;
RolesSoftContinuity = [|1, 2, 3, 4|1, 0, 0, 3|];
SameDegreeInRoom = 20;
Mergeability = 0;
